c   #vars: 39   #clauses: 179   #literals: 540
c 
p cnf 39 179
-1 -2 0
11 17 18 -23 0
-4 -5 0
6 -14 -38 -39 0
-7 -8 0
-9 -10 0
13 32 33 -38 0
4 5 16 -35 0
-14 -15 0
-17 25 26 31 0
-17 -18 0
-19 -20 0
-21 -22 0
1 2 38 39 0
-23 -24 0
-25 -26 0
17 18 -25 31 0
-27 -28 0
-29 -30 0
4 5 25 26 0
23 24 -25 34 0
-32 -33 0
1 2 -22 35 0
3 14 15 -38 0
12 -27 32 33 0
-23 25 26 34 0
-2 -4 16 35 0
1 2 19 20 0
-36 -37 0
6 -27 -32 -33 0
-38 -39 0
14 15 36 37 0
-1 -17 0
-2 -18 0
-1 -19 0
-2 -20 0
-1 -23 0
-2 -24 0
14 15 27 28 0
-1 -32 0
-2 -33 0
6 -14 -32 -33 0
-1 -35 0
-1 -38 0
-2 -39 0
11 -23 36 37 0
-3 -15 0
-7 25 26 34 0
3 36 37 -38 0
11 -17 36 37 0
-3 -37 0
3 -14 38 39 0
11 23 24 -36 0
-3 -39 0
-7 25 26 31 0
-5 -16 0
9 10 27 28 0
-4 -19 0
-5 -20 0
9 10 21 22 0
-4 -25 0
-5 -26 0
-7 17 18 31 0
-4 -29 0
-5 -30 0
-4 -36 0
-5 -37 0
6 -14 27 28 -39 0
-6 -15 0
-2 -9 16 35 0
6 -14 -32 -33 -39 0
12 23 24 -27 0
9 10 29 30 0
-9 16 -22 35 0
-6 -28 0
12 25 26 -27 0
-7 -17 0
-8 -18 0
6 14 15 -27 0
-7 -29 0
-8 -30 0
13 -32 38 39 0
-7 23 24 34 0
-8 -31 0
12 -23 25 26 0
1 2 -16 35 0
-8 -34 0
19 20 29 30 0
7 8 -25 31 0
-10 -16 0
-9 -19 0
-10 -20 0
-4 16 -22 35 0
-9 -21 0
-10 -22 0
7 8 29 30 0
-9 -27 0
-10 -28 0
-9 -29 0
-10 -30 0
6 14 15 -27 -39 0
13 -14 32 33 0
-11 -18 0
13 14 15 -38 0
-11 -24 0
17 18 36 37 0
13 14 15 -32 0
-11 -37 0
13 -14 38 39 0
-12 -24 0
-12 -26 0
1 2 32 33 0
-12 -28 0
6 -27 -32 -33 -39 0
11 -17 23 24 0
9 10 19 20 0
-12 -33 0
7 8 17 18 0
4 5 -9 16 0
-13 -15 0
3 -36 38 39 0
12 -25 32 33 0
-13 -33 0
6 -27 -38 -39 0
12 -23 32 33 0
-13 -39 0
4 5 29 30 0
-14 -27 0
-15 -28 0
1 2 17 18 0
-14 -29 0
-15 -30 0
1 2 23 24 0
-14 -36 0
-15 -37 0
19 20 38 39 0
7 8 -17 31 0
-4 9 10 16 0
7 8 -25 34 0
-18 -31 0
14 15 29 30 0
-17 -32 0
-18 -33 0
12 25 26 -32 0
-17 -36 0
-18 -37 0
-19 -29 0
-20 -30 0
3 14 15 -36 0
-19 -38 0
-20 -39 0
4 5 19 20 0
11 17 18 -36 0
9 10 16 -35 0
25 26 29 30 0
3 -14 36 37 0
12 23 24 -25 0
12 -25 27 28 0
-21 -32 0
-22 -33 0
12 -23 27 28 0
-21 -35 0
21 22 32 33 0
-21 -38 0
-22 -39 0
17 18 32 33 0
6 -14 27 28 0
12 27 28 -32 0
-16 21 22 35 0
-24 -34 0
4 5 36 37 0
-25 -29 0
-26 -30 0
21 22 38 39 0
7 8 -23 34 0
-26 -31 0
12 23 24 -32 0
-2 21 22 35 0
-26 -34 0
